p tw 28 190
0 1
0 2
0 4
0 7
0 5
0 19
0 20
0 16
0 6
0 22
0 27
1 2
1 16
1 18
1 15
1 3
1 27
1 26
1 13
1 23
2 6
2 7
2 8
2 25
2 4
2 21
2 10
2 14
2 26
2 9
2 3
2 27
2 19
2 13
2 11
2 15
2 22
2 17
2 12
3 4
3 5
3 11
3 17
3 14
3 20
3 21
3 12
3 13
3 16
3 27
3 19
3 6
3 24
4 5
4 7
4 10
4 12
4 11
4 15
4 21
4 6
4 14
4 9
4 25
4 18
4 22
4 23
4 8
4 17
5 12
5 22
5 27
5 13
5 16
5 8
5 25
5 7
6 7
6 8
6 12
6 19
6 13
6 11
6 25
6 24
6 17
6 26
6 18
7 20
7 24
7 25
7 22
7 17
7 13
7 18
8 25
8 27
8 17
8 9
9 10
9 11
9 20
9 25
9 23
9 15
9 17
9 12
9 18
9 26
10 11
10 12
10 15
10 16
10 14
10 20
10 21
10 25
10 19
10 26
10 18
10 13
11 13
11 14
11 17
11 15
11 25
11 24
12 19
12 13
12 14
12 18
12 20
12 22
13 14
13 21
13 22
13 16
13 17
13 27
13 18
13 20
13 23
14 20
14 16
14 17
14 23
14 22
14 19
14 18
14 27
14 21
15 16
15 24
15 26
15 17
15 20
15 22
15 25
16 18
16 19
16 17
16 25
16 27
17 23
17 20
17 22
18 22
18 21
18 27
18 26
18 19
19 20
19 24
19 21
19 27
19 26
19 25
20 24
20 22
20 25
20 21
21 22
21 27
21 23
22 23
22 27
24 25
24 26
25 27
26 27
